# Solution for model Residenece MIP Model
# Objective value = 6.3833799999999988e+04
X(0_0) 0
X(0_1) 0
X(0_2) 0
X(0_3) 480
X(0_4) 480
X(0_5) 0
X(0_6) 0
X(0_7) 0
X(0_8) 480
X(0_9) 480
X(0_10) 0
X(0_11) 0
X(1_0) 233
X(1_1) 233
X(1_2) 0
X(1_3) 0
X(1_4) 0
X(1_5) 233
X(1_6) 233
X(1_7) 0
X(1_8) 0
X(1_9) 0
X(1_10) 233
X(1_11) 233
X(2_0) 379
X(2_1) 379
X(2_2) 0
X(2_3) 0
X(2_4) 0
X(2_5) 379
X(2_6) 379
X(2_7) 0
X(2_8) 0
X(2_9) 0
X(2_10) 379
X(2_11) 378
X(3_0) 0
X(3_1) 0
X(3_2) 708
X(3_3) 708
X(3_4) 0
X(3_5) 0
X(3_6) 0
X(3_7) 708
X(3_8) 708
X(3_9) 0
X(3_10) 0
X(3_11) 0
X(4_0) 0
X(4_1) 0
X(4_2) 281
X(4_3) 281
X(4_4) 0
X(4_5) 0
X(4_6) 0
X(4_7) 281
X(4_8) 281
X(4_9) 0
X(4_10) 0
X(4_11) 0
X(5_0) 0
X(5_1) 0
X(5_2) 234
X(5_3) 90
X(5_4) 180
X(5_5) 0
X(5_6) 0
X(5_7) 225
X(5_8) 90
X(5_9) 189
X(5_10) 0
X(5_11) 0
X(6_0) 0
X(6_1) 0
X(6_2) 192
X(6_3) 0
X(6_4) 192
X(6_5) 0
X(6_6) 0
X(6_7) 192
X(6_8) 0
X(6_9) 192
X(6_10) 0
X(6_11) 0
X(7_0) 0
X(7_1) 188
X(7_2) 0
X(7_3) 0
X(7_4) 144
X(7_5) 95
X(7_6) 188
X(7_7) 0
X(7_8) 0
X(7_9) 142
X(7_10) 96
X(7_11) 189
X(8_0) 288
X(8_1) 232
X(8_2) 96
X(8_3) 0
X(8_4) 0
X(8_5) 288
X(8_6) 232
X(8_7) 0
X(8_8) 0
X(8_9) 96
X(8_10) 288
X(8_11) 232
X(9_0) 240
X(9_1) 240
X(9_2) 0
X(9_3) 0
X(9_4) 0
X(9_5) 240
X(9_6) 240
X(9_7) 0
X(9_8) 0
X(9_9) 0
X(9_10) 240
X(9_11) 240
X(10_0) 288
X(10_1) 288
X(10_2) 0
X(10_3) 0
X(10_4) 0
X(10_5) 288
X(10_6) 288
X(10_7) 0
X(10_8) 0
X(10_9) 0
X(10_10) 288
X(10_11) 288
Y(0_0) 0
Y(0_1) 0
Y(0_2) 0
Y(0_3) 1
Y(0_4) 1
Y(0_5) 1
Y(0_6) 1
Y(0_7) 1
Y(0_8) 1
Y(0_9) 1
Y(0_10) 1
Y(0_11) 1
Y(0_12) 1
Y(0_13) 1
Y(0_14) 0
Y(0_15) 0
Y(1_0) 1
Y(1_1) 1
Y(1_2) 1
Y(1_3) 1
Y(1_4) 1
Y(1_5) 1
Y(1_6) 1
Y(1_7) 1
Y(1_8) 1
Y(1_9) 1
Y(1_10) 1
Y(1_11) 1
Y(1_12) 1
Y(1_13) 1
Y(1_14) 1
Y(1_15) 1
Y(2_0) 1
Y(2_1) 1
Y(2_2) 1
Y(2_3) 1
Y(2_4) 1
Y(2_5) 1
Y(2_6) 1
Y(2_7) 1
Y(2_8) 1
Y(2_9) 1
Y(2_10) 1
Y(2_11) 1
Y(2_12) 1
Y(2_13) 1
Y(2_14) 1
Y(2_15) 1
Y(3_0) 0
Y(3_1) 0
Y(3_2) 1
Y(3_3) 1
Y(3_4) 1
Y(3_5) 1
Y(3_6) 1
Y(3_7) 1
Y(3_8) 1
Y(3_9) 1
Y(3_10) 1
Y(3_11) 1
Y(3_12) 1
Y(3_13) 0
Y(3_14) 0
Y(3_15) 0
Y(4_0) 0
Y(4_1) 0
Y(4_2) 1
Y(4_3) 1
Y(4_4) 1
Y(4_5) 1
Y(4_6) 1
Y(4_7) 1
Y(4_8) 1
Y(4_9) 1
Y(4_10) 1
Y(4_11) 1
Y(4_12) 1
Y(4_13) 0
Y(4_14) 0
Y(4_15) 0
Y(5_0) 0
Y(5_1) 0
Y(5_2) 1
Y(5_3) 1
Y(5_4) 1
Y(5_5) 1
Y(5_6) 1
Y(5_7) 1
Y(5_8) 1
Y(5_9) 1
Y(5_10) 1
Y(5_11) 1
Y(5_12) 1
Y(5_13) 1
Y(5_14) 0
Y(5_15) 0
Y(6_0) 0
Y(6_1) 0
Y(6_2) 1
Y(6_3) 1
Y(6_4) 1
Y(6_5) 1
Y(6_6) 1
Y(6_7) 1
Y(6_8) 1
Y(6_9) 1
Y(6_10) 1
Y(6_11) 1
Y(6_12) 1
Y(6_13) 1
Y(6_14) 0
Y(6_15) 0
Y(7_0) 0
Y(7_1) 1
Y(7_2) 1
Y(7_3) 1
Y(7_4) 1
Y(7_5) 1
Y(7_6) 1
Y(7_7) 1
Y(7_8) 1
Y(7_9) 1
Y(7_10) 1
Y(7_11) 1
Y(7_12) 1
Y(7_13) 1
Y(7_14) 1
Y(7_15) 1
Y(8_0) 1
Y(8_1) 1
Y(8_2) 1
Y(8_3) 1
Y(8_4) 1
Y(8_5) 1
Y(8_6) 1
Y(8_7) 1
Y(8_8) 1
Y(8_9) 1
Y(8_10) 1
Y(8_11) 1
Y(8_12) 1
Y(8_13) 1
Y(8_14) 1
Y(8_15) 1
Y(9_0) 1
Y(9_1) 1
Y(9_2) 1
Y(9_3) 1
Y(9_4) 1
Y(9_5) 1
Y(9_6) 1
Y(9_7) 1
Y(9_8) 1
Y(9_9) 1
Y(9_10) 1
Y(9_11) 1
Y(9_12) 1
Y(9_13) 1
Y(9_14) 1
Y(9_15) 1
Y(10_0) 1
Y(10_1) 1
Y(10_2) 1
Y(10_3) 1
Y(10_4) 1
Y(10_5) 1
Y(10_6) 1
Y(10_7) 1
Y(10_8) 1
Y(10_9) 1
Y(10_10) 1
Y(10_11) 1
Y(10_12) 1
Y(10_13) 1
Y(10_14) 1
Y(10_15) 1
XMULT(0_0) 0
XMULT(0_1) 0
XMULT(0_2) 0
XMULT(0_3) 10
XMULT(0_4) 10
XMULT(0_5) 0
XMULT(0_6) 0
XMULT(0_7) 0
XMULT(0_8) 10
XMULT(0_9) 10
XMULT(0_10) 0
XMULT(0_11) 0
XMULT(1_0) 5
XMULT(1_1) 5
XMULT(1_2) 0
XMULT(1_3) 0
XMULT(1_4) 0
XMULT(1_5) 5
XMULT(1_6) 5
XMULT(1_7) 0
XMULT(1_8) 0
XMULT(1_9) 0
XMULT(1_10) 5
XMULT(1_11) 5
XMULT(2_0) 8
XMULT(2_1) 8
XMULT(2_2) 0
XMULT(2_3) 0
XMULT(2_4) 0
XMULT(2_5) 8
XMULT(2_6) 8
XMULT(2_7) 0
XMULT(2_8) 0
XMULT(2_9) 0
XMULT(2_10) 8
XMULT(2_11) 8
XMULT(3_0) 0
XMULT(3_1) 0
XMULT(3_2) 15
XMULT(3_3) 15
XMULT(3_4) 0
XMULT(3_5) 0
XMULT(3_6) 0
XMULT(3_7) 15
XMULT(3_8) 15
XMULT(3_9) 0
XMULT(3_10) 0
XMULT(3_11) 0
XMULT(4_0) 0
XMULT(4_1) 0
XMULT(4_2) 6
XMULT(4_3) 6
XMULT(4_4) 0
XMULT(4_5) 0
XMULT(4_6) 0
XMULT(4_7) 6
XMULT(4_8) 6
XMULT(4_9) 0
XMULT(4_10) 0
XMULT(4_11) 0
XMULT(5_0) 0
XMULT(5_1) 0
XMULT(5_2) 5
XMULT(5_3) 2
XMULT(5_4) 4
XMULT(5_5) 0
XMULT(5_6) 0
XMULT(5_7) 5
XMULT(5_8) 2
XMULT(5_9) 4
XMULT(5_10) 0
XMULT(5_11) 0
XMULT(6_0) 0
XMULT(6_1) 0
XMULT(6_2) 4
XMULT(6_3) 0
XMULT(6_4) 4
XMULT(6_5) 0
XMULT(6_6) 0
XMULT(6_7) 4
XMULT(6_8) 0
XMULT(6_9) 4
XMULT(6_10) 0
XMULT(6_11) 0
XMULT(7_0) 0
XMULT(7_1) 4
XMULT(7_2) 0
XMULT(7_3) 0
XMULT(7_4) 3
XMULT(7_5) 2
XMULT(7_6) 4
XMULT(7_7) 0
XMULT(7_8) 0
XMULT(7_9) 3
XMULT(7_10) 2
XMULT(7_11) 4
XMULT(8_0) 6
XMULT(8_1) 5
XMULT(8_2) 2
XMULT(8_3) 0
XMULT(8_4) 0
XMULT(8_5) 6
XMULT(8_6) 5
XMULT(8_7) 0
XMULT(8_8) 0
XMULT(8_9) 2
XMULT(8_10) 6
XMULT(8_11) 5
XMULT(9_0) 5
XMULT(9_1) 5
XMULT(9_2) 0
XMULT(9_3) 0
XMULT(9_4) 0
XMULT(9_5) 5
XMULT(9_6) 5
XMULT(9_7) 0
XMULT(9_8) 0
XMULT(9_9) 0
XMULT(9_10) 5
XMULT(9_11) 5
XMULT(10_0) 6
XMULT(10_1) 6
XMULT(10_2) 0
XMULT(10_3) 0
XMULT(10_4) 0
XMULT(10_5) 6
XMULT(10_6) 6
XMULT(10_7) 0
XMULT(10_8) 0
XMULT(10_9) 0
XMULT(10_10) 6
XMULT(10_11) 6
AUXMULT(0_0) 1
AUXMULT(0_1) 1
AUXMULT(0_2) 1
AUXMULT(0_3) 0
AUXMULT(0_4) 0
AUXMULT(0_5) 1
AUXMULT(0_6) 1
AUXMULT(0_7) 1
AUXMULT(0_8) 0
AUXMULT(0_9) 0
AUXMULT(0_10) 1
AUXMULT(0_11) 1
AUXMULT(1_0) 0
AUXMULT(1_1) 0
AUXMULT(1_2) 1
AUXMULT(1_3) 1
AUXMULT(1_4) 1
AUXMULT(1_5) 0
AUXMULT(1_6) 0
AUXMULT(1_7) 1
AUXMULT(1_8) 1
AUXMULT(1_9) 1
AUXMULT(1_10) 0
AUXMULT(1_11) 0
AUXMULT(2_0) 0
AUXMULT(2_1) 0
AUXMULT(2_2) 1
AUXMULT(2_3) 1
AUXMULT(2_4) 1
AUXMULT(2_5) 0
AUXMULT(2_6) 0
AUXMULT(2_7) 1
AUXMULT(2_8) 1
AUXMULT(2_9) 1
AUXMULT(2_10) 0
AUXMULT(2_11) 0
AUXMULT(3_0) 1
AUXMULT(3_1) 1
AUXMULT(3_2) 0
AUXMULT(3_3) 0
AUXMULT(3_4) 1
AUXMULT(3_5) 1
AUXMULT(3_6) 1
AUXMULT(3_7) 0
AUXMULT(3_8) 0
AUXMULT(3_9) 1
AUXMULT(3_10) 1
AUXMULT(3_11) 1
AUXMULT(4_0) 1
AUXMULT(4_1) 1
AUXMULT(4_2) 0
AUXMULT(4_3) 0
AUXMULT(4_4) 1
AUXMULT(4_5) 1
AUXMULT(4_6) 1
AUXMULT(4_7) 0
AUXMULT(4_8) 0
AUXMULT(4_9) 1
AUXMULT(4_10) 1
AUXMULT(4_11) 1
AUXMULT(5_0) 1
AUXMULT(5_1) 1
AUXMULT(5_2) 0
AUXMULT(5_3) 0
AUXMULT(5_4) 0
AUXMULT(5_5) 1
AUXMULT(5_6) 1
AUXMULT(5_7) 0
AUXMULT(5_8) 0
AUXMULT(5_9) 0
AUXMULT(5_10) 1
AUXMULT(5_11) 1
AUXMULT(6_0) 1
AUXMULT(6_1) 1
AUXMULT(6_2) 0
AUXMULT(6_3) 1
AUXMULT(6_4) 0
AUXMULT(6_5) 1
AUXMULT(6_6) 1
AUXMULT(6_7) 0
AUXMULT(6_8) 1
AUXMULT(6_9) 0
AUXMULT(6_10) 1
AUXMULT(6_11) 1
AUXMULT(7_0) 1
AUXMULT(7_1) 0
AUXMULT(7_2) 1
AUXMULT(7_3) 1
AUXMULT(7_4) 0
AUXMULT(7_5) 0
AUXMULT(7_6) 0
AUXMULT(7_7) 1
AUXMULT(7_8) 1
AUXMULT(7_9) 0
AUXMULT(7_10) 0
AUXMULT(7_11) 0
AUXMULT(8_0) 0
AUXMULT(8_1) 0
AUXMULT(8_2) 0
AUXMULT(8_3) 1
AUXMULT(8_4) 1
AUXMULT(8_5) 0
AUXMULT(8_6) 0
AUXMULT(8_7) 1
AUXMULT(8_8) 1
AUXMULT(8_9) 0
AUXMULT(8_10) 0
AUXMULT(8_11) 0
AUXMULT(9_0) 0
AUXMULT(9_1) 0
AUXMULT(9_2) 1
AUXMULT(9_3) 1
AUXMULT(9_4) 1
AUXMULT(9_5) 0
AUXMULT(9_6) 0
AUXMULT(9_7) 1
AUXMULT(9_8) 1
AUXMULT(9_9) 1
AUXMULT(9_10) 0
AUXMULT(9_11) 0
AUXMULT(10_0) 0
AUXMULT(10_1) 0
AUXMULT(10_2) 1
AUXMULT(10_3) 1
AUXMULT(10_4) 1
AUXMULT(10_5) 0
AUXMULT(10_6) 0
AUXMULT(10_7) 1
AUXMULT(10_8) 1
AUXMULT(10_9) 1
AUXMULT(10_10) 0
AUXMULT(10_11) 0
XRES(0_0) 0
XRES(0_1) 0
XRES(0_2) 0
XRES(0_3) 30
XRES(0_4) 30
XRES(0_5) 0
XRES(0_6) 0
XRES(0_7) 0
XRES(0_8) 30
XRES(0_9) 30
XRES(0_10) 0
XRES(0_11) 0
XRES(1_0) 8
XRES(1_1) 8
XRES(1_2) 0
XRES(1_3) 0
XRES(1_4) 0
XRES(1_5) 8
XRES(1_6) 8
XRES(1_7) 0
XRES(1_8) 0
XRES(1_9) 0
XRES(1_10) 8
XRES(1_11) 8
XRES(2_0) 19
XRES(2_1) 19
XRES(2_2) 0
XRES(2_3) 0
XRES(2_4) 0
XRES(2_5) 19
XRES(2_6) 19
XRES(2_7) 0
XRES(2_8) 0
XRES(2_9) 0
XRES(2_10) 19
XRES(2_11) 18
XRES(3_0) 0
XRES(3_1) 0
XRES(3_2) 33
XRES(3_3) 33
XRES(3_4) 0
XRES(3_5) 0
XRES(3_6) 0
XRES(3_7) 33
XRES(3_8) 33
XRES(3_9) 0
XRES(3_10) 0
XRES(3_11) 0
XRES(4_0) 0
XRES(4_1) 0
XRES(4_2) 11
XRES(4_3) 11
XRES(4_4) 0
XRES(4_5) 0
XRES(4_6) 0
XRES(4_7) 11
XRES(4_8) 11
XRES(4_9) 0
XRES(4_10) 0
XRES(4_11) 0
XRES(5_0) 0
XRES(5_1) 0
XRES(5_2) 9
XRES(5_3) 0
XRES(5_4) 0
XRES(5_5) 0
XRES(5_6) 0
XRES(5_7) 0
XRES(5_8) 0
XRES(5_9) 9
XRES(5_10) 0
XRES(5_11) 0
XRES(6_0) 0
XRES(6_1) 0
XRES(6_2) 12
XRES(6_3) 0
XRES(6_4) 12
XRES(6_5) 0
XRES(6_6) 0
XRES(6_7) 12
XRES(6_8) 0
XRES(6_9) 12
XRES(6_10) 0
XRES(6_11) 0
XRES(7_0) 0
XRES(7_1) 8
XRES(7_2) 0
XRES(7_3) 0
XRES(7_4) 9
XRES(7_5) 5
XRES(7_6) 8
XRES(7_7) 0
XRES(7_8) 0
XRES(7_9) 7
XRES(7_10) 6
XRES(7_11) 9
XRES(8_0) 18
XRES(8_1) 7
XRES(8_2) 6
XRES(8_3) 0
XRES(8_4) 0
XRES(8_5) 18
XRES(8_6) 7
XRES(8_7) 0
XRES(8_8) 0
XRES(8_9) 6
XRES(8_10) 18
XRES(8_11) 7
XRES(9_0) 15
XRES(9_1) 15
XRES(9_2) 0
XRES(9_3) 0
XRES(9_4) 0
XRES(9_5) 15
XRES(9_6) 15
XRES(9_7) 0
XRES(9_8) 0
XRES(9_9) 0
XRES(9_10) 15
XRES(9_11) 15
XRES(10_0) 18
XRES(10_1) 18
XRES(10_2) 0
XRES(10_3) 0
XRES(10_4) 0
XRES(10_5) 18
XRES(10_6) 18
XRES(10_7) 0
XRES(10_8) 0
XRES(10_9) 0
XRES(10_10) 18
XRES(10_11) 18
Y2(0_0) 0
Y2(0_1) 0
Y2(0_2) 0
Y2(0_3) 0
Y2(0_4) 0
Y2(0_5) 0
Y2(0_6) 0
Y2(0_7) 0
Y2(0_8) 0
Y2(0_9) 0
Y2(0_10) 0
Y2(0_11) 0
Y2(0_12) 0
Y2(0_13) 0
Y2(0_14) 0
Y2(0_15) 0
Y2(1_0) 0
Y2(1_1) 0
Y2(1_2) 0
Y2(1_3) 0
Y2(1_4) 0
Y2(1_5) 0
Y2(1_6) 0
Y2(1_7) 0
Y2(1_8) 0
Y2(1_9) 0
Y2(1_10) 0
Y2(1_11) 0
Y2(1_12) 0
Y2(1_13) 0
Y2(1_14) 0
Y2(1_15) 0
Y2(2_0) 0
Y2(2_1) 0
Y2(2_2) 0
Y2(2_3) 0
Y2(2_4) 0
Y2(2_5) 0
Y2(2_6) 0
Y2(2_7) 0
Y2(2_8) 0
Y2(2_9) 0
Y2(2_10) 0
Y2(2_11) 0
Y2(2_12) 0
Y2(2_13) 0
Y2(2_14) 0
Y2(2_15) 0
Y2(3_0) 0
Y2(3_1) 0
Y2(3_2) 0
Y2(3_3) 0
Y2(3_4) 0
Y2(3_5) 0
Y2(3_6) 0
Y2(3_7) 0
Y2(3_8) 0
Y2(3_9) 0
Y2(3_10) 0
Y2(3_11) 0
Y2(3_12) 0
Y2(3_13) 0
Y2(3_14) 0
Y2(3_15) 0
Y2(4_0) 0
Y2(4_1) 0
Y2(4_2) 0
Y2(4_3) 0
Y2(4_4) 0
Y2(4_5) 0
Y2(4_6) 0
Y2(4_7) 0
Y2(4_8) 0
Y2(4_9) 0
Y2(4_10) 0
Y2(4_11) 0
Y2(4_12) 0
Y2(4_13) 0
Y2(4_14) 0
Y2(4_15) 0
Y2(5_0) 0
Y2(5_1) 0
Y2(5_2) 0
Y2(5_3) 0
Y2(5_4) 0
Y2(5_5) 0
Y2(5_6) 0
Y2(5_7) 0
Y2(5_8) 0
Y2(5_9) 0
Y2(5_10) 0
Y2(5_11) 0
Y2(5_12) 0
Y2(5_13) 0
Y2(5_14) 0
Y2(5_15) 0
Y2(6_0) 0
Y2(6_1) 0
Y2(6_2) 0
Y2(6_3) 0
Y2(6_4) 0
Y2(6_5) 0
Y2(6_6) 0
Y2(6_7) 0
Y2(6_8) 0
Y2(6_9) 0
Y2(6_10) 0
Y2(6_11) 0
Y2(6_12) 0
Y2(6_13) 0
Y2(6_14) 0
Y2(6_15) 0
Y2(7_0) 0
Y2(7_1) 0
Y2(7_2) 0
Y2(7_3) 0
Y2(7_4) 0
Y2(7_5) 0
Y2(7_6) 0
Y2(7_7) 0
Y2(7_8) 0
Y2(7_9) 0
Y2(7_10) 0
Y2(7_11) 0
Y2(7_12) 0
Y2(7_13) 0
Y2(7_14) 0
Y2(7_15) 0
Y2(8_0) 0
Y2(8_1) 0
Y2(8_2) 0
Y2(8_3) 0
Y2(8_4) 0
Y2(8_5) 0
Y2(8_6) 0
Y2(8_7) 0
Y2(8_8) 0
Y2(8_9) 0
Y2(8_10) 0
Y2(8_11) 0
Y2(8_12) 0
Y2(8_13) 0
Y2(8_14) 0
Y2(8_15) 0
Y2(9_0) 0
Y2(9_1) 0
Y2(9_2) 0
Y2(9_3) 0
Y2(9_4) 0
Y2(9_5) 0
Y2(9_6) 0
Y2(9_7) 0
Y2(9_8) 0
Y2(9_9) 0
Y2(9_10) 0
Y2(9_11) 0
Y2(9_12) 0
Y2(9_13) 0
Y2(9_14) 0
Y2(9_15) 0
Y2(10_0) 0
Y2(10_1) 0
Y2(10_2) 0
Y2(10_3) 0
Y2(10_4) 0
Y2(10_5) 0
Y2(10_6) 0
Y2(10_7) 0
Y2(10_8) 0
Y2(10_9) 0
Y2(10_10) 0
Y2(10_11) 0
Y2(10_12) 0
Y2(10_13) 0
Y2(10_14) 0
Y2(10_15) 0
